instances/knapsack/discrete_knapsack_uncertainty/knapsack_70_5.kp
16834
70
347

92 9.2 10
56 5.6 79
34 3.4 88
55 5.5 32
68 6.8 90
86 8.6 17
77 7.7 62
52 5.2 64
65 6.5 75
6 0.6 51
60 6.0 51
35 3.5 7
28 2.8 51
24 2.4 70
21 2.1 91
49 4.9 88
9 0.9 78
72 7.2 30
49 4.9 19
14 1.4 18
73 7.3 86
76 7.6 87
12 1.2 56
71 7.1 28
89 8.9 69
32 3.2 51
14 1.4 56
92 9.2 32
46 4.6 22
31 3.1 89
18 1.8 81
76 7.6 44
60 6.0 92
97 9.7 7
60 6.0 12
13 1.3 17
92 9.2 33
33 3.3 87
32 3.2 15
83 8.3 92
59 5.9 36
66 6.6 10
10 1.0 34
70 7.0 35
79 7.9 83
59 5.9 55
98 9.8 41
78 7.8 53
27 2.7 57
40 4.0 34
31 3.1 75
96 9.6 11
53 5.3 51
92 9.2 97
45 4.5 68
52 5.2 70
45 4.5 11
31 3.1 68
64 6.4 4
34 3.4 3
17 1.7 4
15 1.5 74
48 4.8 30
67 6.7 78
92 9.2 31
100 10.0 53
1 0.1 85
55 5.5 38
44 4.4 45
30 3.0 58

21223
334

[0.12144680066176823 2.2586272895406023 1.828936747466694 0.2863644352759202 0.5917045390106165 0.7523784192714665 1.682966408297183 2.5763449785771777 2.9466930708281973 1.55515827342191 2.225261780106862 1.2937300117548274 4.189329207752234 2.454621750755384 2.95810998500467 0.2651120004369206 0.24206562696794112 0.6852660823812796 4.46837293307833 0.9769926569307809 0.78593329106793 2.538896243933555 1.8702571244795547 2.2099251710842 3.921289242933955 4.652685082237602 2.2513548384601507 2.889649219834079 0.6173653797748563 2.3402533839755604 0.3421963520940049 0.47874676571195424 4.201389297614881 2.312388142691746 2.525287553281768 4.276885825517746 0.22403180733716732 4.691992911169888 0.4153414131453869 2.212418129046331 1.6080557230292274 3.437846126878928 1.1109172631706397 0.39137337960469676 0.21575533145902512 4.641489333238309 3.786621640256784 0.16524852397925938 3.013114182750483 3.587208140107113 2.030900603156442 1.635317581426829 2.7106447626726076 1.3520670807070094 3.7744767494150566 0.6720876425007177 2.75448158788341 3.1033033375869574 2.1765938503198825 3.505947287055806 3.15672165038599 0.7064139697322186 1.8043615296223596 0.747481094387458 0.7596855226762278 2.1594327698055564 2.9284492812188483 1.723011395428931 1.6044037176949835 1.1672575651653345]

[88 57 23 44 5 98 78 72 18 99 96 60 37 25 37 9 26 29 66 83 2 68 33 47 53 85 71 24 38 8 42 64 100 90 73 70 53 81 25 3 68 6 7 62 52 59 90 70 40 89 23 17 26 85 85 68 14 35 53 7 17 19 88 99 40 33 17 63 93 2]
